(declare-fun temp10431_1 () (_ BitVec 64))
(declare-fun temp10431_2 () (_ BitVec 64))
(declare-fun var87778 () (_ BitVec 64))
(declare-fun k!0 () Bool)
(declare-fun ARGNAME_input_NAMEEND_DIM () (_ BitVec 64))
(declare-fun temp10431_3 () (_ BitVec 64))
(declare-fun var3347539 () (_ BitVec 64))
(declare-fun temp10431_4 () (_ BitVec 64))
(declare-fun temp10431_5 () (_ BitVec 64))
(declare-fun var3945277 () (_ BitVec 64))
(declare-fun temp10431_6 () (_ BitVec 64))
(declare-fun var4010813 () (_ BitVec 64))
(declare-fun temp10431_7 () (_ BitVec 64))
(declare-fun var4600637 () (_ BitVec 64))
(declare-fun temp10431_8 () (_ BitVec 64))
(declare-fun var4666173 () (_ BitVec 64))
(declare-fun temp10431_10 () (_ BitVec 64))
(declare-fun temp10431_9 () (_ BitVec 64))
(declare-fun temp10431_11 () (_ BitVec 64))
(declare-fun var5127450 () (_ BitVec 64))
(declare-fun temp10431_12 () (_ BitVec 64))
(declare-fun var4740299 () (_ BitVec 64))
(declare-fun var4740276 () (_ BitVec 64))
(declare-fun var4740275 () (_ BitVec 64))
(declare-fun temp10431_13 () (_ BitVec 64))
(declare-fun var4740280 () (_ BitVec 64))
(declare-fun var5583677 () (_ BitVec 64))
(declare-fun var5649213 () (_ BitVec 64))
(declare-fun temp10431_14 () (_ BitVec 64))
(declare-fun ARGNAME_keepdim_NAMEEND () (_ BitVec 64))
(declare-fun temp10431_15 () (_ BitVec 64))
(declare-fun var6103883 () (_ BitVec 64))
(assert (= temp10431_1 #x0000000000000002))
(assert (= var87778
   (ite (= ARGNAME_input_NAMEEND_DIM temp10431_1)
        #x0000000000000001
        #x0000000000000000)))
(assert (= temp10431_2 #x0000000000000001))
(assert (= var87778 temp10431_2))
(assert (= temp10431_3 #x0000000000000002))
(assert (= var3347539
   (ite (bvslt ARGNAME_input_NAMEEND_DIM temp10431_3)
        #x0000000000000001
        #x0000000000000000)))
(assert (= temp10431_4 #x0000000000000000))
(assert (= var3347539 temp10431_4))
(assert (= temp10431_5 #x0000000000000000))
(assert (= var3945277 temp10431_5))
(assert (= temp10431_6 #x0000000000000001))
(assert (= var4010813 temp10431_6))
(assert (= temp10431_7 #x0000000000000000))
(assert (= var4600637 temp10431_7))
(assert (= temp10431_8 #x0000000000000001))
(assert (= var4666173 temp10431_8))
(assert (= temp10431_10 #x0000000000000000))
(assert (= temp10431_9 temp10431_10))
(assert (= temp10431_11 #x0000000000000000))
(assert (= var5127450 temp10431_11))
(assert (= temp10431_12 #x0000000000000000))
(assert (= var4740299 temp10431_12))
(assert (= var4740276 var4740299))
(assert (= var4740275 var4740276))
(assert (= temp10431_13 #x0000000000000001))
(assert (= var4740280 (bvadd var4740275 temp10431_13)))
(assert (= var5583677 var4740275))
(assert (= var5649213 var4740280))
(assert (= temp10431_14 #x0000000000000001))
(assert (= ARGNAME_keepdim_NAMEEND temp10431_14))
(assert (= temp10431_15 #xffffffffffffffff))
(assert (= var6103883 temp10431_15))
(model-add temp10431_1 () (_ BitVec 64) #x0000000000000002)
(model-add temp10431_2 () (_ BitVec 64) #x0000000000000001)
(model-add var87778 () (_ BitVec 64) #x0000000000000001)
(model-del k!0)
(model-add ARGNAME_input_NAMEEND_DIM
           ()
           (_ BitVec 64)
           (ite k!0 #x0000000000000002 (bvnot #x0000000000000002)))




